DIMACS2
80 237 207 184 308 93 169 99 32 245 259 301 1 206 137 281 213 47 118 214 251 84 165 15 25 95 307 157 250 20 188 75 178 59 194 5 6 224 227 69 246 80 230 226 193 100 65 210 186 134 81 311 221 28 44 41 150 160 204 40 33 262 17 176 196 200 112 90 23 158 132 54 275 197 292 279 201 76 168 21 256
p edge 320 1335
e 0 278 1.0
e 1 114 30.0
e 1 57 49.0
e 1 292 24.0
e 1 129 35.0
e 1 305 31.0
e 1 84 12.0
e 1 290 26.0
e 1 223 5.0
e 1 254 47.0
e 1 276 8.0
e 1 295 49.0
e 1 189 41.0
e 1 166 42.0
e 1 26 20.0
e 1 98 39.0
e 1 314 29.0
e 2 43 2.0
e 3 1 19.0
e 4 168 28.0
e 4 220 1.0
e 4 283 5.0
e 5 75 39.0
e 5 86 44.0
e 5 179 30.0
e 5 178 26.0
e 5 270 26.0
e 5 192 42.0
e 5 100 30.0
e 5 85 2.0
e 5 273 11.0
e 5 126 31.0
e 5 300 5.0
e 5 99 36.0
e 5 177 28.0
e 5 69 33.0
e 5 186 8.0
e 5 41 34.0
e 6 295 1.0
e 6 251 12.0
e 6 161 17.0
e 6 64 35.0
e 6 252 40.0
e 6 257 5.0
e 6 169 8.0
e 6 29 39.0
e 6 258 19.0
e 6 72 19.0
e 6 135 4.0
e 6 232 15.0
e 6 214 29.0
e 6 86 34.0
e 6 123 25.0
e 6 167 45.0
e 6 89 22.0
e 7 200 12.0
e 7 318 2.0
e 8 317 1.0
e 8 0 1.0
e 9 195 1.0
e 10 65 9.0
e 11 211 1.0
e 12 237 34.0
e 13 141 1.0
e 14 18 1.0
e 15 314 36.0
e 15 47 43.0
e 15 77 41.0
e 15 49 17.0
e 15 0 14.0
e 15 72 28.0
e 15 28 25.0
e 15 157 20.0
e 15 147 47.0
e 15 187 47.0
e 15 183 12.0
e 15 163 12.0
e 15 162 2.0
e 15 145 9.0
e 15 233 30.0
e 16 229 1.0
e 17 216 15.0
e 17 21 5.0
e 17 259 40.0
e 17 191 22.0
e 17 164 26.0
e 17 57 7.0
e 17 90 9.0
e 17 79 7.0
e 17 156 16.0
e 17 182 39.0
e 17 74 45.0
e 17 301 23.0
e 17 272 8.0
e 17 243 15.0
e 17 47 43.0
e 17 66 22.0
e 18 73 1.0
e 19 253 1.0
e 20 149 24.0
e 20 25 4.0
e 20 181 6.0
e 20 265 2.0
e 20 125 4.0
e 20 5 31.0
e 20 109 48.0
e 20 44 30.0
e 20 45 14.0
e 20 22 28.0
e 20 264 3.0
e 20 301 6.0
e 20 197 10.0
e 20 283 16.0
e 20 160 29.0
e 21 19 27.0
e 21 247 44.0
e 21 317 17.0
e 21 228 30.0
e 21 213 22.0
e 21 170 46.0
e 21 216 45.0
e 21 71 9.0
e 21 222 43.0
e 21 82 18.0
e 21 244 8.0
e 21 99 35.0
e 21 147 23.0
e 21 177 14.0
e 21 293 45.0
e 22 115 1.0
e 23 29 31.0
e 23 285 23.0
e 23 164 23.0
e 23 54 40.0
e 23 93 3.0
e 23 225 9.0
e 23 198 33.0
e 23 200 43.0
e 23 91 36.0
e 23 52 10.0
e 23 296 33.0
e 23 318 23.0
e 23 33 21.0
e 23 10 34.0
e 23 116 17.0
e 24 277 1.0
e 25 202 24.0
e 25 268 6.0
e 25 35 25.0
e 25 196 7.0
e 25 96 13.0
e 25 99 2.0
e 25 305 27.0
e 25 286 35.0
e 25 158 4.0
e 25 299 34.0
e 25 263 14.0
e 25 309 49.0
e 25 303 6.0
e 25 193 46.0
e 25 15 41.0
e 26 17 45.0
e 27 113 1.0
e 28 175 42.0
e 28 88 44.0
e 28 86 48.0
e 28 208 39.0
e 28 18 47.0
e 28 37 5.0
e 28 205 1.0
e 28 165 45.0
e 28 298 10.0
e 28 198 11.0
e 28 166 47.0
e 28 261 26.0
e 28 55 12.0
e 28 271 43.0
e 28 176 37.0
e 29 279 48.0
e 30 109 2.0
e 30 74 1.0
e 31 251 9.0
e 32 105 44.0
e 32 199 46.0
e 32 227 38.0
e 32 200 23.0
e 32 176 35.0
e 32 15 49.0
e 32 42 36.0
e 32 33 47.0
e 32 187 31.0
e 32 147 27.0
e 32 204 5.0
e 32 258 40.0
e 32 161 15.0
e 32 43 10.0
e 32 1 19.0
e 33 187 46.0
e 33 34 38.0
e 33 91 11.0
e 33 280 13.0
e 33 103 30.0
e 33 122 10.0
e 33 52 27.0
e 33 153 40.0
e 33 313 18.0
e 33 267 3.0
e 33 171 47.0
e 33 312 31.0
e 33 235 32.0
e 33 233 49.0
e 33 7 30.0
e 34 168 28.0
e 34 32 30.0
e 35 76 18.0
e 36 146 1.0
e 37 139 1.0
e 38 188 39.0
e 39 139 1.0
e 40 153 44.0
e 40 280 36.0
e 40 282 37.0
e 40 302 43.0
e 40 228 27.0
e 40 215 14.0
e 40 167 1.0
e 40 259 37.0
e 40 69 44.0
e 40 183 44.0
e 40 300 25.0
e 40 103 20.0
e 40 100 19.0
e 40 189 46.0
e 40 49 42.0
e 40 168 48.0
e 41 90 13.0
e 41 186 38.0
e 41 188 6.0
e 41 1 48.0
e 41 22 30.0
e 41 154 15.0
e 41 311 41.0
e 41 166 28.0
e 41 305 20.0
e 41 37 25.0
e 41 221 12.0
e 41 34 33.0
e 41 57 10.0
e 41 192 26.0
e 41 150 30.0
e 41 201 28.0
e 42 70 1.0
e 43 192 5.0
e 44 156 37.0
e 44 251 22.0
e 44 217 47.0
e 44 183 18.0
e 44 289 11.0
e 44 104 31.0
e 44 219 3.0
e 44 306 32.0
e 44 260 12.0
e 44 141 21.0
e 44 45 10.0
e 44 298 28.0
e 44 140 28.0
e 44 39 33.0
e 44 64 34.0
e 44 262 13.0
e 45 57 2.0
e 46 23 29.0
e 47 56 3.0
e 47 233 24.0
e 47 123 22.0
e 47 144 1.0
e 47 275 30.0
e 47 306 33.0
e 47 94 4.0
e 47 146 35.0
e 47 105 45.0
e 47 133 25.0
e 47 208 17.0
e 47 53 20.0
e 47 92 25.0
e 47 74 5.0
e 48 124 1.0
e 49 177 2.0
e 50 101 1.0
e 50 10 6.0
e 51 18 1.0
e 52 255 1.0
e 53 222 1.0
e 54 51 23.0
e 54 316 18.0
e 54 95 41.0
e 54 204 22.0
e 54 290 13.0
e 54 182 14.0
e 54 210 28.0
e 54 275 39.0
e 54 313 22.0
e 54 134 19.0
e 54 71 17.0
e 54 9 26.0
e 54 24 10.0
e 54 104 45.0
e 54 90 20.0
e 54 276 26.0
e 55 258 10.0
e 56 212 2.0
e 57 168 38.0
e 58 235 1.0
e 58 189 1.0
e 59 239 4.0
e 59 33 19.0
e 59 301 32.0
e 59 112 9.0
e 59 235 12.0
e 59 279 30.0
e 59 65 3.0
e 59 132 18.0
e 59 170 10.0
e 59 213 41.0
e 59 53 29.0
e 59 32 15.0
e 59 241 7.0
e 59 223 20.0
e 59 38 22.0
e 59 111 13.0
e 60 198 1.0
e 61 78 1.0
e 62 12 1.0
e 63 281 6.0
e 64 52 1.0
e 65 19 36.0
e 65 309 5.0
e 65 219 17.0
e 65 94 36.0
e 65 182 15.0
e 65 165 13.0
e 65 262 41.0
e 65 319 23.0
e 65 310 29.0
e 65 37 30.0
e 65 88 13.0
e 65 109 2.0
e 65 203 36.0
e 65 50 3.0
e 65 199 26.0
e 66 187 2.0
e 67 27 2.0
e 68 32 3.0
e 69 173 30.0
e 69 87 30.0
e 69 280 30.0
e 69 126 22.0
e 69 75 20.0
e 69 138 34.0
e 69 225 43.0
e 69 203 39.0
e 69 84 22.0
e 69 23 3.0
e 69 19 42.0
e 69 217 5.0
e 69 245 14.0
e 69 140 37.0
e 70 35 2.0
e 71 314 2.0
e 72 82 2.0
e 73 46 1.0
e 74 23 16.0
e 75 165 47.0
e 75 250 48.0
e 75 190 19.0
e 75 29 18.0
e 75 47 7.0
e 75 158 32.0
e 75 6 29.0
e 75 156 40.0
e 75 114 16.0
e 75 282 17.0
e 75 243 5.0
e 75 303 45.0
e 75 195 22.0
e 75 240 7.0
e 76 80 15.0
e 76 302 34.0
e 76 62 10.0
e 76 49 14.0
e 76 17 4.0
e 76 203 35.0
e 76 75 40.0
e 76 21 2.0
e 76 279 22.0
e 76 228 33.0
e 76 47 49.0
e 76 105 16.0
e 76 84 25.0
e 76 271 43.0
e 76 293 15.0
e 77 63 1.0
e 77 21 30.0
e 78 20 37.0
e 79 10 2.0
e 80 97 36.0
e 80 206 48.0
e 80 287 2.0
e 80 172 27.0
e 80 56 10.0
e 80 119 33.0
e 80 277 6.0
e 80 185 36.0
e 80 217 46.0
e 80 117 15.0
e 80 307 12.0
e 80 116 11.0
e 80 27 37.0
e 80 246 8.0
e 80 69 22.0
e 81 219 29.0
e 81 25 8.0
e 81 182 22.0
e 81 166 1.0
e 81 100 48.0
e 81 236 31.0
e 81 314 22.0
e 81 49 30.0
e 81 159 14.0
e 81 269 25.0
e 81 307 6.0
e 81 20 5.0
e 81 237 45.0
e 81 149 45.0
e 81 117 41.0
e 81 282 24.0
e 81 61 30.0
e 82 279 8.0
e 83 74 1.0
e 84 311 45.0
e 84 35 34.0
e 84 15 2.0
e 84 237 2.0
e 84 3 44.0
e 84 90 43.0
e 84 4 16.0
e 84 65 11.0
e 84 17 20.0
e 84 75 33.0
e 84 296 4.0
e 84 238 16.0
e 84 227 3.0
e 85 27 1.0
e 86 26 2.0
e 87 28 4.0
e 88 227 28.0
e 89 225 3.0
e 90 200 20.0
e 90 69 12.0
e 90 26 45.0
e 90 83 25.0
e 90 285 1.0
e 90 271 35.0
e 90 266 31.0
e 90 140 48.0
e 90 307 15.0
e 90 209 13.0
e 90 120 47.0
e 90 204 3.0
e 90 138 9.0
e 91 154 1.0
e 92 46 1.0
e 93 291 49.0
e 93 230 3.0
e 93 100 48.0
e 93 167 7.0
e 93 250 8.0
e 93 316 37.0
e 93 174 28.0
e 93 307 9.0
e 93 217 31.0
e 93 17 5.0
e 93 169 11.0
e 93 149 28.0
e 93 233 2.0
e 93 247 12.0
e 93 79 17.0
e 93 234 39.0
e 94 55 2.0
e 95 304 12.0
e 95 96 23.0
e 95 55 36.0
e 95 287 47.0
e 95 10 31.0
e 95 145 24.0
e 95 236 17.0
e 95 53 33.0
e 95 238 31.0
e 95 226 46.0
e 95 263 9.0
e 95 197 49.0
e 95 141 23.0
e 95 75 45.0
e 95 142 31.0
e 96 181 2.0
e 97 11 1.0
e 98 247 2.0
e 99 160 1.0
e 99 69 38.0
e 99 94 2.0
e 99 188 49.0
e 99 203 28.0
e 99 204 5.0
e 99 79 27.0
e 99 65 19.0
e 99 257 46.0
e 99 270 11.0
e 99 316 47.0
e 99 118 2.0
e 99 93 42.0
e 99 147 36.0
e 100 48 26.0
e 100 137 39.0
e 100 20 27.0
e 100 35 9.0
e 100 58 47.0
e 100 279 11.0
e 100 7 40.0
e 100 148 25.0
e 100 88 29.0
e 100 60 38.0
e 100 194 46.0
e 100 12 16.0
e 101 32 30.0
e 102 183 2.0
e 103 253 1.0
e 104 181 1.0
e 105 43 1.0
e 106 62 1.0
e 107 111 1.0
e 107 226 20.0
e 108 56 1.0
e 109 153 2.0
e 110 315 1.0
e 111 97 1.0
e 112 248 6.0
e 112 273 33.0
e 112 249 26.0
e 112 156 37.0
e 112 22 49.0
e 112 7 10.0
e 112 58 32.0
e 112 107 49.0
e 112 20 15.0
e 112 118 26.0
e 112 269 15.0
e 112 126 43.0
e 112 190 24.0
e 112 272 27.0
e 112 277 31.0
e 113 126 1.0
e 114 284 1.0
e 115 80 7.0
e 116 14 1.0
e 117 21 19.0
e 118 129 47.0
e 118 62 39.0
e 118 288 12.0
e 118 223 25.0
e 118 210 23.0
e 118 249 3.0
e 118 196 36.0
e 118 257 16.0
e 118 130 32.0
e 118 54 16.0
e 118 70 25.0
e 118 60 48.0
e 118 161 20.0
e 118 72 30.0
e 118 272 23.0
e 119 292 30.0
e 120 114 2.0
e 121 218 1.0
e 122 89 3.0
e 123 263 1.0
e 124 145 2.0
e 125 47 17.0
e 126 307 45.0
e 127 98 6.0
e 128 260 1.0
e 129 291 1.0
e 130 308 46.0
e 131 202 1.0
e 132 226 24.0
e 132 36 37.0
e 132 157 29.0
e 132 224 4.0
e 132 273 20.0
e 132 250 28.0
e 132 184 16.0
e 132 76 30.0
e 132 251 13.0
e 132 288 29.0
e 132 231 8.0
e 132 125 28.0
e 132 272 38.0
e 132 164 4.0
e 132 266 11.0
e 132 162 2.0
e 133 268 2.0
e 134 271 16.0
e 134 24 43.0
e 134 105 30.0
e 134 44 33.0
e 134 240 12.0
e 134 307 31.0
e 134 188 19.0
e 134 219 3.0
e 134 76 41.0
e 134 209 29.0
e 134 32 38.0
e 134 21 31.0
e 134 151 32.0
e 134 111 46.0
e 135 274 2.0
e 136 260 1.0
e 136 36 1.0
e 137 117 33.0
e 137 169 26.0
e 137 165 6.0
e 137 91 36.0
e 137 23 35.0
e 137 270 14.0
e 137 227 49.0
e 137 188 16.0
e 137 92 20.0
e 137 191 27.0
e 137 179 42.0
e 137 99 8.0
e 137 84 35.0
e 137 67 39.0
e 137 80 17.0
e 137 88 11.0
e 138 128 1.0
e 139 106 3.0
e 140 38 1.0
e 141 31 1.0
e 142 16 1.0
e 143 315 1.0
e 144 67 1.0
e 145 153 2.0
e 146 16 1.0
e 147 286 1.0
e 148 309 1.0
e 149 97 2.0
e 150 157 43.0
e 150 294 29.0
e 150 142 35.0
e 150 50 13.0
e 150 124 12.0
e 150 220 32.0
e 150 131 17.0
e 150 5 45.0
e 150 42 31.0
e 150 84 30.0
e 150 248 37.0
e 150 274 40.0
e 150 169 7.0
e 150 279 14.0
e 150 188 25.0
e 150 319 46.0
e 151 237 43.0
e 152 233 1.0
e 153 14 1.0
e 154 148 1.0
e 155 64 1.0
e 156 202 2.0
e 157 185 8.0
e 157 23 21.0
e 157 99 31.0
e 157 165 43.0
e 157 219 21.0
e 157 259 1.0
e 157 171 21.0
e 157 221 37.0
e 157 215 14.0
e 157 100 36.0
e 157 41 11.0
e 157 44 5.0
e 157 50 33.0
e 158 46 16.0
e 158 150 17.0
e 158 39 26.0
e 158 226 5.0
e 158 227 49.0
e 158 4 49.0
e 158 88 26.0
e 158 44 31.0
e 158 207 30.0
e 158 209 36.0
e 158 241 5.0
e 158 26 37.0
e 158 2 38.0
e 158 145 11.0
e 158 101 23.0
e 159 100 1.0
e 160 171 3.0
e 160 210 17.0
e 160 40 44.0
e 160 76 7.0
e 160 222 36.0
e 160 248 19.0
e 160 191 39.0
e 160 289 36.0
e 160 53 13.0
e 160 162 11.0
e 160 66 21.0
e 160 77 40.0
e 160 59 49.0
e 160 33 5.0
e 160 100 34.0
e 161 269 1.0
e 162 3 1.0
e 163 138 2.0
e 164 190 1.0
e 165 2 8.0
e 165 288 13.0
e 165 173 1.0
e 165 227 35.0
e 165 223 28.0
e 165 5 29.0
e 165 106 8.0
e 165 13 26.0
e 165 96 27.0
e 165 25 28.0
e 165 297 20.0
e 165 218 37.0
e 166 188 16.0
e 167 52 1.0
e 168 60 9.0
e 168 59 27.0
e 168 234 24.0
e 168 151 40.0
e 168 77 5.0
e 168 176 1.0
e 168 120 40.0
e 168 319 10.0
e 168 41 39.0
e 168 155 14.0
e 168 239 2.0
e 168 157 35.0
e 168 175 17.0
e 169 305 31.0
e 169 77 47.0
e 169 54 20.0
e 169 101 23.0
e 169 234 3.0
e 169 90 11.0
e 169 39 49.0
e 169 178 42.0
e 169 92 36.0
e 169 188 4.0
e 169 113 43.0
e 170 174 1.0
e 171 245 49.0
e 172 310 1.0
e 173 149 2.0
e 174 265 1.0
e 175 239 2.0
e 176 130 6.0
e 176 40 13.0
e 176 34 27.0
e 176 41 42.0
e 176 148 19.0
e 176 4 45.0
e 176 281 37.0
e 176 213 34.0
e 176 172 39.0
e 176 178 14.0
e 176 237 2.0
e 176 214 37.0
e 176 137 2.0
e 176 215 46.0
e 177 103 1.0
e 178 115 28.0
e 178 275 44.0
e 178 184 17.0
e 178 229 11.0
e 178 199 46.0
e 178 133 10.0
e 178 54 48.0
e 178 188 37.0
e 178 33 22.0
e 178 142 28.0
e 178 308 34.0
e 178 66 49.0
e 178 3 5.0
e 178 223 26.0
e 179 180 1.0
e 180 253 1.0
e 181 220 1.0
e 182 98 3.0
e 183 283 5.0
e 184 212 5.0
e 184 79 37.0
e 184 160 25.0
e 184 36 20.0
e 184 45 37.0
e 184 40 46.0
e 184 172 35.0
e 184 130 30.0
e 184 150 44.0
e 184 168 4.0
e 184 61 14.0
e 184 223 1.0
e 184 80 13.0
e 185 224 41.0
e 186 83 30.0
e 186 210 16.0
e 186 248 36.0
e 186 13 34.0
e 186 56 30.0
e 186 302 43.0
e 186 135 36.0
e 186 25 14.0
e 186 28 16.0
e 186 263 19.0
e 186 199 3.0
e 186 307 27.0
e 186 120 47.0
e 186 63 35.0
e 187 278 5.0
e 188 200 12.0
e 188 1 35.0
e 188 143 38.0
e 188 254 33.0
e 188 154 47.0
e 188 106 28.0
e 188 63 29.0
e 189 73 1.0
e 190 89 2.0
e 191 71 2.0
e 192 256 14.0
e 193 286 21.0
e 193 61 6.0
e 193 58 15.0
e 193 85 16.0
e 193 170 41.0
e 193 223 7.0
e 193 159 49.0
e 193 165 11.0
e 193 291 28.0
e 193 28 39.0
e 193 224 13.0
e 193 47 26.0
e 193 254 24.0
e 193 227 17.0
e 194 72 49.0
e 194 240 16.0
e 194 205 22.0
e 194 165 44.0
e 194 284 40.0
e 194 132 6.0
e 194 175 23.0
e 194 211 22.0
e 194 80 35.0
e 194 63 45.0
e 194 133 27.0
e 194 259 11.0
e 194 2 29.0
e 194 99 30.0
e 194 143 41.0
e 194 229 21.0
e 195 180 1.0
e 196 78 49.0
e 196 85 36.0
e 196 245 47.0
e 196 42 28.0
e 196 28 14.0
e 196 138 20.0
e 196 67 16.0
e 196 100 10.0
e 196 275 24.0
e 196 59 18.0
e 196 184 12.0
e 196 319 25.0
e 196 60 21.0
e 196 127 33.0
e 196 180 8.0
e 197 42 9.0
e 197 30 21.0
e 197 143 36.0
e 197 135 27.0
e 197 34 29.0
e 197 150 17.0
e 197 194 11.0
e 197 259 24.0
e 197 210 42.0
e 197 157 41.0
e 197 144 31.0
e 197 65 10.0
e 197 270 45.0
e 197 146 28.0
e 198 10 3.0
e 199 311 46.0
e 200 296 7.0
e 200 81 18.0
e 200 260 26.0
e 200 300 13.0
e 200 173 46.0
e 200 275 28.0
e 200 83 14.0
e 200 201 17.0
e 200 276 25.0
e 200 308 10.0
e 200 84 41.0
e 200 129 36.0
e 201 127 14.0
e 201 101 11.0
e 201 192 13.0
e 201 290 17.0
e 201 125 14.0
e 201 2 20.0
e 201 249 4.0
e 201 297 47.0
e 201 151 6.0
e 201 218 29.0
e 201 152 37.0
e 201 237 48.0
e 201 155 8.0
e 201 162 20.0
e 201 81 2.0
e 202 184 24.0
e 203 197 4.0
e 204 14 29.0
e 204 81 23.0
e 204 160 14.0
e 204 252 34.0
e 204 30 19.0
e 204 214 7.0
e 204 200 17.0
e 204 226 30.0
e 204 316 35.0
e 204 169 46.0
e 204 83 6.0
e 204 93 38.0
e 205 15 48.0
e 206 76 46.0
e 206 297 27.0
e 206 30 12.0
e 206 309 42.0
e 206 175 4.0
e 206 207 18.0
e 206 218 28.0
e 206 204 16.0
e 206 90 29.0
e 206 261 7.0
e 206 102 2.0
e 206 0 22.0
e 206 93 16.0
e 206 94 11.0
e 206 176 14.0
e 206 157 29.0
e 207 51 42.0
e 207 90 30.0
e 207 95 22.0
e 207 106 43.0
e 207 96 7.0
e 207 113 3.0
e 207 184 2.0
e 207 102 7.0
e 207 107 30.0
e 207 298 2.0
e 207 210 8.0
e 207 307 5.0
e 207 279 27.0
e 207 211 37.0
e 207 299 32.0
e 208 85 2.0
e 209 240 1.0
e 210 89 3.0
e 210 204 1.0
e 210 251 24.0
e 210 107 23.0
e 210 151 29.0
e 210 109 9.0
e 210 302 35.0
e 210 152 20.0
e 210 298 41.0
e 210 95 35.0
e 211 48 1.0
e 212 5 16.0
e 213 31 26.0
e 213 134 8.0
e 213 95 14.0
e 213 307 41.0
e 213 241 39.0
e 213 108 8.0
e 213 290 42.0
e 213 3 20.0
e 214 306 25.0
e 214 119 1.0
e 214 108 45.0
e 214 110 36.0
e 214 224 23.0
e 214 112 7.0
e 214 133 38.0
e 214 160 38.0
e 214 286 41.0
e 214 221 3.0
e 214 135 19.0
e 214 205 12.0
e 214 312 20.0
e 214 290 36.0
e 215 24 1.0
e 216 134 35.0
e 217 114 1.0
e 218 261 1.0
e 219 24 2.0
e 220 98 4.0
e 221 27 18.0
e 221 210 39.0
e 221 184 41.0
e 221 291 45.0
e 221 172 7.0
e 221 311 33.0
e 221 165 7.0
e 221 155 38.0
e 221 299 28.0
e 221 128 17.0
e 221 127 29.0
e 221 308 5.0
e 221 108 30.0
e 221 241 22.0
e 222 73 1.0
e 223 40 18.0
e 224 82 22.0
e 224 110 18.0
e 224 8 17.0
e 224 210 32.0
e 224 292 35.0
e 224 152 31.0
e 224 112 41.0
e 224 284 43.0
e 224 13 45.0
e 224 6 13.0
e 224 118 47.0
e 224 119 23.0
e 224 179 16.0
e 225 102 1.0
e 226 87 28.0
e 226 307 4.0
e 226 144 19.0
e 226 186 8.0
e 226 6 15.0
e 227 295 19.0
e 227 275 38.0
e 227 185 39.0
e 227 112 3.0
e 227 301 21.0
e 227 159 23.0
e 227 168 42.0
e 227 312 27.0
e 227 276 28.0
e 227 220 20.0
e 228 84 15.0
e 229 110 1.0
e 230 241 19.0
e 230 307 4.0
e 230 118 18.0
e 230 119 1.0
e 230 136 5.0
e 230 292 7.0
e 230 174 3.0
e 230 311 31.0
e 230 237 19.0
e 230 121 3.0
e 230 200 49.0
e 230 186 25.0
e 230 158 42.0
e 230 201 19.0
e 230 159 15.0
e 230 178 35.0
e 231 188 26.0
e 232 124 1.0
e 233 112 6.0
e 234 31 1.0
e 235 128 2.0
e 236 318 1.0
e 237 169 8.0
e 237 118 6.0
e 237 307 10.0
e 237 178 30.0
e 237 224 48.0
e 237 158 39.0
e 237 292 30.0
e 237 121 27.0
e 237 168 35.0
e 237 193 5.0
e 238 304 1.0
e 239 292 20.0
e 240 20 47.0
e 241 315 5.0
e 242 161 1.0
e 243 304 1.0
e 244 285 1.0
e 245 287 46.0
e 245 256 31.0
e 245 121 15.0
e 245 251 30.0
e 245 292 11.0
e 245 122 38.0
e 245 123 17.0
e 245 197 17.0
e 245 246 28.0
e 245 213 13.0
e 245 204 28.0
e 245 158 23.0
e 245 125 23.0
e 245 169 49.0
e 246 157 8.0
e 246 244 27.0
e 246 259 24.0
e 246 127 20.0
e 246 242 6.0
e 246 131 38.0
e 246 275 38.0
e 246 132 17.0
e 246 200 19.0
e 246 134 29.0
e 246 136 12.0
e 246 292 35.0
e 246 169 47.0
e 246 307 35.0
e 246 9 39.0
e 247 303 2.0
e 248 167 1.0
e 249 173 1.0
e 250 68 38.0
e 250 131 13.0
e 250 134 4.0
e 250 136 8.0
e 250 137 25.0
e 250 221 26.0
e 250 176 28.0
e 250 262 10.0
e 250 178 2.0
e 250 186 21.0
e 250 231 41.0
e 250 188 1.0
e 250 249 8.0
e 251 115 5.0
e 251 137 49.0
e 251 9 38.0
e 251 176 22.0
e 251 188 33.0
e 251 256 35.0
e 251 298 41.0
e 251 205 24.0
e 251 193 40.0
e 251 11 47.0
e 251 194 1.0
e 252 126 3.0
e 253 70 1.0
e 254 208 1.0
e 255 129 1.0
e 256 216 33.0
e 256 221 26.0
e 256 132 46.0
e 256 188 6.0
e 256 194 42.0
e 256 193 11.0
e 256 213 21.0
e 256 11 13.0
e 256 195 22.0
e 256 196 34.0
e 256 197 22.0
e 256 201 5.0
e 256 206 48.0
e 256 292 44.0
e 257 235 1.0
e 258 210 24.0
e 258 270 1.0
e 259 38 47.0
e 259 294 20.0
e 259 279 13.0
e 259 195 40.0
e 259 196 25.0
e 259 206 35.0
e 259 254 31.0
e 259 201 10.0
e 259 213 47.0
e 259 207 24.0
e 259 210 4.0
e 260 98 1.0
e 261 39 1.0
e 262 95 44.0
e 262 196 44.0
e 262 197 35.0
e 262 206 21.0
e 262 207 31.0
e 262 213 34.0
e 262 214 14.0
e 262 283 3.0
e 262 301 42.0
e 262 221 43.0
e 262 224 6.0
e 262 226 21.0
e 262 227 49.0
e 262 307 29.0
e 263 274 2.0
e 264 116 1.0
e 265 89 5.0
e 266 313 1.0
e 267 215 1.0
e 268 236 1.0
e 269 122 1.0
e 270 250 46.0
e 271 278 1.0
e 272 163 1.0
e 273 16 1.0
e 274 187 1.0
e 275 86 6.0
e 275 292 26.0
e 275 207 1.0
e 275 213 3.0
e 275 214 48.0
e 275 224 3.0
e 275 226 36.0
e 275 230 6.0
e 275 231 15.0
e 275 232 19.0
e 276 186 8.0
e 277 68 1.0
e 278 14 3.0
e 279 87 1.0
e 279 265 30.0
e 279 213 23.0
e 279 214 3.0
e 279 226 31.0
e 279 281 19.0
e 279 227 7.0
e 279 230 36.0
e 279 231 25.0
e 280 139 1.0
e 281 45 20.0
e 281 282 21.0
e 281 292 38.0
e 281 213 30.0
e 281 226 23.0
e 281 307 29.0
e 281 227 3.0
e 281 230 3.0
e 281 232 37.0
e 281 233 18.0
e 281 237 21.0
e 281 308 24.0
e 281 238 2.0
e 281 242 24.0
e 282 193 42.0
e 283 15 1.0
e 284 271 2.0
e 285 25 32.0
e 286 8 2.0
e 287 193 34.0
e 288 303 1.0
e 289 247 2.0
e 290 184 34.0
e 291 293 1.0
e 292 204 30.0
e 292 213 45.0
e 292 226 32.0
e 292 233 7.0
e 292 242 44.0
e 292 243 20.0
e 293 296 1.0
e 294 317 1.0
e 295 134 19.0
e 296 191 1.0
e 297 253 1.0
e 298 59 5.0
e 299 16 2.0
e 300 192 4.0
e 301 97 39.0
e 301 213 43.0
e 301 285 43.0
e 301 226 19.0
e 301 237 35.0
e 301 244 4.0
e 301 245 23.0
e 301 246 26.0
e 301 250 37.0
e 301 251 4.0
e 301 255 20.0
e 301 256 22.0
e 302 252 2.0
e 303 8 2.0
e 304 228 1.0
e 305 68 1.0
e 306 169 27.0
e 307 12 40.0
e 307 244 48.0
e 308 304 4.0
e 308 226 6.0
e 308 237 3.0
e 308 245 43.0
e 308 246 24.0
e 308 250 35.0
e 308 251 20.0
e 308 255 34.0
e 308 256 4.0
e 308 258 17.0
e 308 259 15.0
e 308 262 23.0
e 309 75 46.0
e 310 78 1.0
e 311 48 3.0
e 311 226 24.0
e 311 245 39.0
e 311 246 19.0
e 311 250 23.0
e 311 251 34.0
e 311 292 18.0
e 311 275 26.0
e 311 256 44.0
e 311 258 40.0
e 311 259 1.0
e 311 262 25.0
e 312 202 1.0
e 313 289 1.0
e 314 51 3.0
e 315 78 1.0
e 316 163 2.0
e 317 104 1.0
e 318 212 1.0
e 319 69 17.0
